NAME: random-38-32587
TYPE: TSP
COMMENT: size=38 seed=32587
DIMENSION: 78
EDGE_WEIGHT_TYPE: EUC_2D
NODE_COORD_SECTION
+0 709 121
-0 709 121
+1 343 319
-1 477 452
+2 809 857
-2 721 733
+3 338 132
-3 295 394
+4 59 173
-4 462 78
+5 73 990
-5 959 119
+6 342 34
-6 701 263
+7 260 342
-7 331 323
+8 400 467
-8 528 259
+9 768 560
-9 655 392
+10 279 818
-10 488 29
+11 238 219
-11 635 54
+12 636 572
-12 468 962
+13 640 302
-13 687 655
+14 250 655
-14 794 530
+15 901 262
-15 135 876
+16 490 952
-16 715 964
+17 888 930
-17 474 701
+18 982 265
-18 241 120
+19 20 728
-19 170 297
+20 33 183
-20 724 289
+21 908 907
-21 458 715
+22 594 41
-22 803 847
+23 49 12
-23 910 746
+24 376 785
-24 34 736
+25 764 83
-25 4 319
+26 596 830
-26 790 220
+27 426 427
-27 79 149
+28 731 903
-28 178 893
+29 72 209
-29 586 94
+30 265 603
-30 919 196
+31 740 106
-31 70 511
+32 104 185
-32 66 799
+33 128 783
-33 145 729
+34 570 815
-34 179 449
+35 167 746
-35 625 390
+36 418 690
-36 893 597
+37 893 929
-37 277 133
+38 183 930
-38 757 166
PRECEDENCE_SECTION
+0 -0
+1 -1
+2 -2
+3 -3
+4 -4
+5 -5
+6 -6
+7 -7
+8 -8
+9 -9
+10 -10
+11 -11
+12 -12
+13 -13
+14 -14
+15 -15
+16 -16
+17 -17
+18 -18
+19 -19
+20 -20
+21 -21
+22 -22
+23 -23
+24 -24
+25 -25
+26 -26
+27 -27
+28 -28
+29 -29
+30 -30
+31 -31
+32 -32
+33 -33
+34 -34
+35 -35
+36 -36
+37 -37
+38 -38
EOF
